data/benchmarks/bayes/75-14-8-q.cnf
p cnf 924 905
c weights 0.405549 0.5944510000000001 1 1 1 1 1 1 1 1 1 1 1 1 1 1 1 1 1 1 1 1 1 1 1 1 1 1 1 1 1 1 1 1 1 1 1 1 1 1 1 1 1 1 1 1 1 1 1 1 1 1 1 1 1 1 1 1 1 1 1 1 1 1 1 1 1 1 1 1 1 1 1 1 1 1 1 1 1 1 1 1 1 1 1 1 1 1 1 1 1 1 1 1 1 1 1 1 1 1 1 1 1 1 1 1 1 1 1 1 1 1 1 1 1 1 1 1 1 1 1 1 1 1 1 1 1 1 1 1 1 1 1 1 1 1 1 1 1 1 1 1 1 1 1 1 1 1 1 1 1 1 1 1 1 1 1 1 1 1 1 1 1 1 1 1 1 1 1 1 1 1 1 1 1 1 1 1 1 1 1 1 1 1 1 1 1 1 1 1 1 1 1 1 1 1 1 1 1 1 1 1 1 1 1 1 1 1 1 1 1 1 1 1 1 1 1 1 1 1 1 1 1 1 1 1 1 1 1 1 1 1 1 1 1 1 1 1 1 1 1 1 1 1 1 1 1 1 1 1 1 1 1 1 1 1 1 1 1 1 1 1 1 1 1 1 1 1 1 1 1 1 1 1 1 1 1 1 1 1 1 1 1 1 1 1 1 1 1 1 1 1 1 1 1 1 1 1 1 1 1 1 1 1 1 1 1 1 1 1 1 1 1 1 1 1 1 1 1 1 1 1 1 1 1 1 1 1 1 1 1 1 1 1 1 1 1 1 1 1 1 1 1 1 1 1 1 1 1 1 1 1 1 1 1 1 1 1 1 1 1 1 1 1 1 1 1 1 1 1 1 1 1 1 1 1 1 1 1 1 1 1 1 1 1 1 1 1 1 1 1 1 0.5 0.5 0.5 0.5 0.5 0.5 0.5 0.5 0.713078 0.286922 0.0319955 0.9680045 0.5 0.5 0.5 0.5 0.5 0.5 0.5 0.5 0.5 0.5 0.5 0.5 0.871342 0.12865800000000005 0.961572 0.03842800000000002 0.5 0.5 0.5 0.5 0.5 0.5 0.5 0.5 0.286188 0.713812 0.264804 0.735196 0.703767 0.29623299999999997 0.0921464 0.9078536 0.5 0.5 0.5 0.5 0.5 0.5 0.5 0.5 0.5 0.5 0.5 0.5 0.5 0.5 0.5 0.5 0.5 0.5 0.5 0.5 0.5 0.5 0.5 0.5 0.5 0.5 0.5 0.5 0.0602001 0.9397999 0.74293 0.25707 0.672817 0.327183 0.0217718 0.9782282 0.5 0.5 0.5 0.5 0.5 0.5 0.5 0.5 0.5 0.5 0.5 0.5 0.5 0.5 0.5 0.5 0.5 0.5 0.5 0.5 0.5 0.5 0.5 0.5 0.5 0.5 0.5 0.5 0.5 0.5 0.5 0.5 0.5 0.5 0.5 0.5 0.5 0.5 0.5 0.5 0.5 0.5 0.5 0.5 0.5 0.5 0.5 0.5 0.5 0.5 0.5 0.5 0.5 0.5 0.5 0.5 0.5 0.5 0.5 0.5 0.5 0.5 0.5 0.5 0.5 0.5 0.5 0.5 0.5 0.5 0.5 0.5 0.5 0.5 0.5 0.5 0.5 0.5 0.5 0.5 0.5 0.5 0.5 0.5 0.5 0.5 0.5 0.5 0.5 0.5 0.5 0.5 0.5 0.5 0.5 0.5 0.5 0.5 0.5 0.5 0.0483777 0.9516223 0.139779 0.860221 0.818535 0.181465 0.585421 0.41457900000000003 0.5 0.5 0.5 0.5 0.5 0.5 0.5 0.5 0.377958 0.622042 0.625932 0.37406799999999996 0.267789 0.732211 0.474488 0.525512 0.5 0.5 0.5 0.5 0.5 0.5 0.5 0.5 0.536211 0.463789 0.156246 0.843754 0.596015 0.40398500000000004 0.210464 0.789536 0.5 0.5 0.5 0.5 0.5 0.5 0.5 0.5 0.5 0.5 0.5 0.5 0.5 0.5 0.5 0.5 0.295682 0.704318 0.215238 0.784762 0.19621 0.80379 0.2489 0.7511 0.960009 0.039991 0.626858 0.373142 0.390999 0.609001 0.227798 0.772202 0.5 0.5 0.5 0.5 0.5 0.5 0.5 0.5 0.5 0.5 0.5 0.5 0.5 0.5 0.5 0.5 0.162648 0.837352 0.0208003 0.9791997 0.5 0.5 0.5 0.5 0.5 0.5 0.5 0.5 0.5 0.5 0.5 0.5 0.5 0.5 0.5 0.5 0.343289 0.656711 0.633074 0.366926 0.757901 0.24209899999999995 0.303298 0.6967019999999999 0.5 0.5 0.5 0.5 0.5 0.5 0.5 0.5 0.5 0.5 0.5 0.5 0.5 0.5 0.5 0.5 0.5 0.5 0.5 0.5 0.5 0.5 0.5 0.5 0.5 0.5 0.5 0.5 0.5 0.5 0.5 0.5 0.5 0.5 0.5 0.5 0.5 0.5 0.5 0.5 0.5 0.5 0.5 0.5 0.5 0.5 0.5 0.5 0.5 0.5 0.5 0.5 0.5 0.5 0.5 0.5 0.5 0.5 0.5 0.5 0.5 0.5 0.5 0.5 0.5 0.5 0.5 0.5 0.5 0.5 0.5 0.5 0.5 0.5 0.5 0.5 0.5 0.5 0.5 0.5 0.887831 0.11216899999999996 0.227002 0.772998 0.220347 0.779653 0.65281 0.34719 0.317347 0.682653 0.185936 0.814064 0.983237 0.016762999999999972 0.411458 0.588542 0.169128 0.830872 0.180224 0.8197760000000001 0.457156 0.542844 0.80232 0.19767999999999997 0.553925 0.446075 0.71534 0.28466 0.5 0.5 0.5 0.5 0.5 0.5 0.5 0.5 0.5 0.5 0.5 0.5 0.5 0.5 0.5 0.5 0.5 0.5 0.5 0.5 0.5 0.5 0.5 0.5 0.182476 0.817524 0.68374 0.31626 0.417434 0.5825659999999999 0.499823 0.500177 0.253953 0.746047 0.48306 0.51694 0.281135 0.718865 0.423081 0.576919 0.5 0.5 0.5 0.5 0.5 0.5 0.5 0.5 0.5 0.5 0.5 0.5 0.5 0.5 0.5 0.5 0.646639 0.35336100000000004 0.928325 0.07167500000000004 0.189845 0.810155 0.282712 0.7172879999999999 0.5 0.5 0.5 0.5 0.5 0.5 0.5 0.5 0.892313 0.10768699999999998 0.00540899 0.99459101 0.391598 0.608402 0.392136 0.607864 0.645551 0.354449 0.875196 0.12480400000000003 0.5 0.5 0.5 0.5 0.5 0.5 0.5 0.5 0.5 0.5 0.5 0.5 0.5 0.5 0.5 0.5 0.5 0.5 0.5 0.5 0.5 0.5 0.5 0.5 0.5 0.5 0.5 0.5 0.5 0.5 0.5 0.5 0.899539 0.10046100000000002 0.743946 0.256054 0.732576 0.267424 0.791852 0.208148 0.5 0.5 0.5 0.5 0.5 0.5 0.5 0.5 0.5 0.5 0.5 0.5 0.5 0.5 0.5 0.5 0.601749 0.398251 0.48521 0.5147900000000001 0.331674 0.668326 0.226996 0.773004 0.5 0.5 0.5 0.5 0.5 0.5 0.5 0.5 0.5 0.5 0.5 0.5 0.5 0.5 0.5 0.5 0.5 0.5 0.5 0.5 0.5 0.5 0.5 0.5 0.5 0.5 0.5 0.5 0.5 0.5 0.5 0.5 0.5 0.5 0.5 0.5 0.5 0.5 0.5 0.5 0.5 0.5 0.5 0.5 0.94359 0.05640999999999996 0.818153 0.18184699999999998 0.875936 0.12406399999999995 0.909916 0.09008400000000005 0.435827 0.564173 0.157533 0.842467 0.0463506 0.9536494 0.703304 0.29669599999999996 0.647796 0.35220399999999996 0.160482 0.839518 0.203051 0.796949 0.00765418 0.99234582 0.5 0.5 0.5 0.5 0.5 0.5 0.5 0.5 0.5 0.5 0.5 0.5 0.5 0.5 0.5 0.5 0.5 0.5 0.5 0.5 0.5 0.5 0.5 0.5 0.574394 0.42560600000000004 0.683222 0.316778 0.788786 0.211214 0.450329 0.549671 0.5 0.5 0.5 0.5 0.5 0.5 0.5 0.5 0.5 0.5 0.5 0.5 0.5 0.5 0.5 0.5 0.5 0.5 0.5 0.5 0.5 0.5 0.5 0.5 0.5 0.5 0.5 0.5 0.5 0.5 0.5 0.5 0.5 0.5 0.5 0.5 0.5 0.5 0.5 0.5 0.5 0.5 0.5 0.5 0.5 0.5 0.5 0.5 0.5 0.5 0.5 0.5 0.5 0.5 0.5 0.5 0.5 0.5 0.5 0.5 0.5 0.5 0.5 0.5 0.5 0.5 0.5 0.5 0.5 0.5 0.5 0.5 0.5 0.5 0.5 0.5 0.5 0.5 0.5 0.5 0.5 0.5 0.5 0.5 0.5 0.5 0.5 0.5 0.5 0.5 0.5 0.5 0.603923 0.396077 0.228568 0.771432 0.182289 0.817711 0.919035 0.08096499999999995 0.5 0.5 0.5 0.5 0.5 0.5 0.5 0.5 0.5 0.5 0.5 0.5 0.5 0.5 0.5 0.5 0.5 0.5 0.5 0.5 0.5 0.5 0.5 0.5 0.5 0.5 0.5 0.5 0.5 0.5 0.5 0.5 0.5 0.5 0.5 0.5 0.5 0.5 0.5 0.5 0.5 0.5 0.5 0.5 0.5 0.5 0.5 0.5 0.5 0.5 0.5 0.5 0.5 0.5 0.5 0.5 0.5 0.5 0.5 0.5 0.5 0.5 0.5 0.5 0.5 0.5 0.5 0.5 0.5 0.5 0.5 0.5 0.5 0.5 0.5 0.5 0.5 0.5 0.5 0.5 0.5 0.5 0.5 0.5 0.5 0.5 0.5 0.5 0.5 0.5 0.5 0.5 0.922067 0.07793300000000003 0.8667 0.13329999999999997 0.363395 0.636605 0.231988 0.768012 0.5 0.5 0.5 0.5 0.5 0.5 0.5 0.5 0.5 0.5 0.5 0.5 0.5 0.5 0.5 0.5 0.766262 0.233738 0.508024 0.49197599999999997 0.159805 0.840195 0.146103 0.853897 0.5 0.5 0.5 0.5 0.5 0.5 0.5 0.5 0.5 0.5 0.5 0.5 0.5 0.5 0.5 0.5 0.5 0.5 0.5 0.5 0.5 0.5 0.5 0.5 0.5 0.5 0.5 0.5 0.5 0.5 0.5 0.5 0.5 0.5 0.5 0.5 0.5 0.5 0.5 0.5 0.5 0.5 0.5 0.5 0.5 0.5 0.5 0.5 0.5 0.5 0.5 0.5 0.5 0.5 0.5 0.5 0.5 0.5 0.5 0.5 0.5 0.5 0.5 0.5 0.5 0.5 0.5 0.5 0.5 0.5 0.5 0.5 0.5 0.5 0.5 0.5 0.5 0.5 0.5 0.5 0.5 0.5 0.5 0.5 0.5 0.5 0.5 0.5 0.5 0.5 0.5 0.5 0.5 0.5 0.5 0.5 0.5 0.5 0.5 0.5 0.5 0.5 0.5 0.5 0.5 0.5 0.5 0.5 0.5 0.5 0.5 0.5 0.5 0.5 0.5 0.5 0.5 0.5 0.5 0.5 0.5 0.5 0.5 0.5 0.459493 0.5405070000000001 0.268709 0.731291 0.863687 0.13631300000000002 0.981852 0.018148000000000053 0.5 0.5 0.5 0.5 0.5 0.5 0.5 0.5 0.5 0.5 0.5 0.5 0.5 0.5 0.5 0.5 0.5 0.5 0.5 0.5 0.5 0.5 0.5 0.5 0.5 0.5 0.5 0.5 0.5 0.5 0.5 0.5 0.5 0.5 0.5 0.5 0.5 0.5 0.5 0.5 0.5 0.5 0.5 0.5 0.837534 0.162466 0.293848 0.706152 0.441183 0.558817 0.824144 0.175856 0.198402 0.801598 0.06417 0.9358299999999999 0.927364 0.07263600000000003 0.776278 0.22372199999999998 0.919522 0.08047800000000005 0.517275 0.48272499999999996 0.918743 0.08125700000000002 0.402904 0.5970960000000001 0.0232272 0.9767728 0.572544 0.42745599999999995 0.837686 0.16231399999999996 0.43108 0.56892 0.5 0.5 0.5 0.5 0.5 0.5 0.5 0.5 0.5 0.5 0.5 0.5 0.5 0.5 0.5 0.5 0.380859 0.6191409999999999 0.300862 0.699138 0.227646 0.772354 0.822042 0.17795799999999995 0.5 0.5 0.5 0.5 0.5 0.5 0.5 0.5 0.14155 0.8584499999999999 0.87439 0.12561 0.313997 0.6860029999999999 0.0602932 0.9397068 0.5 0.5 0.5 0.5 0.5 0.5 0.5 0.5 0.5 0.5 0.5 0.5 0.5 0.5 0.5 0.5 0.5 0.5 0.5 0.5 0.810608 0.189392 0.906436 0.09356399999999998 0.263475 0.736525 0.744406 0.255594 0.5 0.5 0.5 0.5 0.5 0.5 0.5 0.5 0.129781 0.870219 0.878519 0.12148099999999995 0.954424 0.04557599999999995 0.926503 0.07349700000000003 0.5 0.5 0.5 0.5 0.5 0.5 0.5 0.5 0.5 0.5 0.5 0.5 0.5 0.5 0.5 0.5 0.0395927 0.9604073 0.565786 0.434214 0.129494 0.870506 0.154497 0.845503 0.929641 0.07035899999999995 0.965105 0.03489500000000001 0.866556 0.133444 0.193115 0.806885 0.5 0.5 0.5 0.5 0.5 0.5 0.5 0.5 0.5 0.5 0.5 0.5 0.5 0.5 0.5 0.5 0.5 0.5 0.5 0.5 0.5 0.5 0.5 0.5 0.5 0.5 0.5 0.5 0.5 0.5 0.5 0.5 0.5 0.5 0.5 0.5 0.5 0.5 0.5 0.5 0.522542 0.47745800000000005 0.897084 0.10291600000000001 0.5 0.5 0.5 0.5 0.5 0.5 0.5 0.5 0.5 0.5 0.5 0.5 0.5 0.5 0.5 0.5 0.5 0.5 0.5 0.5 0.5 0.5 0.5 0.5 0.5 0.5 0.5 0.5 0.5 0.5 0.5 0.5 0.5 0.5 0.5 0.5 0.5 0.5 0.5 0.5 0.5 0.5 0.5 0.5 0.5 0.5 0.5 0.5 0.162571 0.837429 0.460574 0.539426 0.38795 0.61205 0.976997 0.023002999999999996 0.67611 0.32389 0.0546129 0.9453871 0.853587 0.14641300000000002 0.64539 0.35461 0.5 0.5 0.5 0.5 0.5 0.5 0.5 0.5 0.5 0.5 0.5 0.5 0.5 0.5 0.5 0.5 0.5 0.5 0.5 0.5 0.5 0.5 0.5 0.5 0.5 0.5 0.5 0.5 0.5 0.5 0.5 0.5 0.5 0.5 0.5 0.5 0.5 0.5 0.5 0.5 0.5 0.5 0.5 0.5 0.589959 0.410041 0.96973 0.03027000000000002 0.604389 0.39561100000000005 0.115158 0.884842 0.5 0.5 0.5 0.5 0.5 0.5 0.5 0.5 0.5 0.5 0.5 0.5 0.5 0.5 0.5 0.5 0.5 0.5 0.5 0.5 0.5 0.5 0.5 0.5 0.989728 0.010271999999999948 0.817845 0.18215499999999996 0.250763 0.7492369999999999 0.711613 0.28838699999999995 0.5 0.5 0.5 0.5 0.5 0.5 0.5 0.5 0.5 0.5 0.5 0.5 0.5 0.5 0.5 0.5 0.5 0.5 0.5 0.5 0.5 0.5 0.5 0.5 0.5 0.5 0.5 0.5 0.5 0.5 0.5 0.5 0.248581 0.7514190000000001 0.00670858 0.99329142 0.991646 0.008353999999999973 0.952843 0.047157000000000004 0.981374 0.01862600000000003 0.770689 0.22931100000000004 0.112457 0.887543 0.692986 0.307014 0.5 0.5 0.5 0.5 0.5 0.5 0.5 0.5 0.5 0.5 0.5 0.5 0.5 0.5 0.5 0.5
-1 2 0
1 -2 0
-2 -3 0
2 3 0
-3 -201 4 0
-3 201 -4 0
3 -202 4 0
3 202 -4 0
-4 -5 0
4 5 0
-5 -6 0
5 6 0
-6 -7 0
6 7 0
-7 -209 8 0
-7 209 -8 0
7 -210 8 0
7 210 -8 0
-8 9 0
8 -9 0
-9 10 0
9 -10 0
-10 -215 11 0
-10 215 -11 0
10 -216 11 0
10 216 -11 0
-11 -217 12 0
-11 217 -12 0
11 -218 12 0
11 218 -12 0
-12 13 0
12 -13 0
-13 -14 0
13 14 0
-1 -15 0
1 15 0
-15 -2 16 0
-15 2 -16 0
15 -2 16 0
15 2 -16 0
-16 -3 17 0
-16 3 -17 0
16 -3 -17 0
16 3 17 0
-17 -4 -233 18 0
-17 -4 233 -18 0
-17 4 -234 18 0
-17 4 234 -18 0
17 -4 -235 18 0
17 -4 235 -18 0
17 4 -236 18 0
17 4 236 -18 0
-18 -5 19 0
-18 5 19 0
18 -5 -19 0
18 5 19 0
-19 -6 -20 0
-19 6 20 0
19 -6 -20 0
19 6 -20 0
-20 -7 -21 0
-20 7 21 0
20 -7 -21 0
20 7 21 0
-21 -8 -22 0
-21 8 -22 0
21 -8 22 0
21 8 22 0
-22 -9 23 0
-22 9 -23 0
22 -9 -23 0
22 9 -23 0
-23 -10 24 0
-23 10 24 0
23 -10 24 0
23 10 -24 0
-24 -11 25 0
-24 11 25 0
24 -11 -25 0
24 11 -25 0
-25 -12 -26 0
-25 12 26 0
25 -12 26 0
25 12 26 0
-26 -13 27 0
-26 13 -27 0
26 -13 -27 0
26 13 -27 0
-27 -14 -28 0
-27 14 -28 0
27 -14 28 0
27 14 28 0
-15 29 0
15 -29 0
-29 -16 -30 0
-29 16 30 0
29 -16 30 0
29 16 30 0
-30 -17 -31 0
-30 17 31 0
30 -17 31 0
30 17 -31 0
-31 -18 -287 32 0
-31 -18 287 -32 0
-31 18 -288 32 0
-31 18 288 -32 0
31 -18 -289 32 0
31 -18 289 -32 0
31 18 -290 32 0
31 18 290 -32 0
-32 -19 33 0
-32 19 -33 0
32 -19 33 0
32 19 33 0
-33 -20 -295 34 0
-33 -20 295 -34 0
-33 20 -296 34 0
-33 20 296 -34 0
33 -20 -297 34 0
33 -20 297 -34 0
33 20 -298 34 0
33 20 298 -34 0
-34 -21 35 0
-34 21 35 0
34 -21 -35 0
34 21 35 0
-35 -22 -303 36 0
-35 -22 303 -36 0
-35 22 -304 36 0
-35 22 304 -36 0
35 -22 -305 36 0
35 -22 305 -36 0
35 22 -306 36 0
35 22 306 -36 0
-36 -23 37 0
-36 23 -37 0
36 -23 37 0
36 23 37 0
-37 -24 38 0
-37 24 38 0
37 -24 -38 0
37 24 38 0
-38 -25 -315 39 0
-38 -25 315 -39 0
-38 25 -316 39 0
-38 25 316 -39 0
38 -25 -317 39 0
38 -25 317 -39 0
38 25 -318 39 0
38 25 318 -39 0
-39 -26 -319 40 0
-39 -26 319 -40 0
-39 26 -320 40 0
-39 26 320 -40 0
39 -26 -321 40 0
39 -26 321 -40 0
39 26 -322 40 0
39 26 322 -40 0
-40 -27 -41 0
-40 27 41 0
40 -27 -41 0
40 27 -41 0
-41 -28 -42 0
-41 28 -42 0
41 -28 42 0
41 28 -42 0
-29 -331 43 0
-29 331 -43 0
29 -332 43 0
29 332 -43 0
-43 -30 44 0
-43 30 -44 0
43 -30 44 0
43 30 44 0
-44 -31 -45 0
-44 31 -45 0
44 -31 -45 0
44 31 45 0
-45 -32 -341 46 0
-45 -32 341 -46 0
-45 32 -342 46 0
-45 32 342 -46 0
45 -32 -343 46 0
45 -32 343 -46 0
45 32 -344 46 0
45 32 344 -46 0
-46 -33 47 0
-46 33 47 0
46 -33 -47 0
46 33 47 0
-47 -34 -48 0
-47 34 -48 0
47 -34 48 0
47 34 48 0
-48 -35 -49 0
-48 35 49 0
48 -35 -49 0
48 35 -49 0
-49 -36 50 0
-49 36 -50 0
49 -36 50 0
49 36 50 0
-50 -37 51 0
-50 37 51 0
50 -37 -51 0
50 37 51 0
-51 -38 -52 0
-51 38 52 0
51 -38 52 0
51 38 52 0
-52 -39 53 0
-52 39 -53 0
52 -39 -53 0
52 39 -53 0
-53 -40 -54 0
-53 40 54 0
53 -40 54 0
53 40 -54 0
-54 -41 -55 0
-54 41 -55 0
54 -41 -55 0
54 41 55 0
-55 -42 -56 0
-55 42 -56 0
55 -42 56 0
55 42 56 0
-43 -385 57 0
-43 385 -57 0
43 -386 57 0
43 386 -57 0
-57 -44 -387 58 0
-57 -44 387 -58 0
-57 44 -388 58 0
-57 44 388 -58 0
57 -44 -389 58 0
57 -44 389 -58 0
57 44 -390 58 0
57 44 390 -58 0
-58 -45 -391 59 0
-58 -45 391 -59 0
-58 45 -392 59 0
-58 45 392 -59 0
58 -45 -393 59 0
58 -45 393 -59 0
58 45 -394 59 0
58 45 394 -59 0
-59 -46 -395 60 0
-59 -46 395 -60 0
-59 46 -396 60 0
-59 46 396 -60 0
59 -46 -397 60 0
59 -46 397 -60 0
59 46 -398 60 0
59 46 398 -60 0
-60 -47 61 0
-60 47 61 0
60 -47 -61 0
60 47 61 0
-61 -48 -62 0
-61 48 -62 0
61 -48 -62 0
61 48 62 0
-62 -49 63 0
-62 49 -63 0
62 -49 63 0
62 49 63 0
-63 -50 -411 64 0
-63 -50 411 -64 0
-63 50 -412 64 0
-63 50 412 -64 0
63 -50 -413 64 0
63 -50 413 -64 0
63 50 -414 64 0
63 50 414 -64 0
-64 -51 -415 65 0
-64 -51 415 -65 0
-64 51 -416 65 0
-64 51 416 -65 0
64 -51 -417 65 0
64 -51 417 -65 0
64 51 -418 65 0
64 51 418 -65 0
-65 -52 -66 0
-65 52 66 0
65 -52 66 0
65 52 -66 0
-66 -53 67 0
-66 53 67 0
66 -53 -67 0
66 53 67 0
-67 -54 -427 68 0
-67 -54 427 -68 0
-67 54 -428 68 0
-67 54 428 -68 0
67 -54 -429 68 0
67 -54 429 -68 0
67 54 -430 68 0
67 54 430 -68 0
-68 -55 -69 0
-68 55 69 0
68 -55 69 0
68 55 69 0
-69 -56 -435 70 0
-69 -56 435 -70 0
-69 56 -436 70 0
-69 56 436 -70 0
69 -56 -437 70 0
69 -56 437 -70 0
69 56 -438 70 0
69 56 438 -70 0
-57 -439 71 0
-57 439 -71 0
57 -440 71 0
57 440 -71 0
-71 -58 72 0
-71 58 -72 0
71 -58 72 0
71 58 -72 0
-72 -59 73 0
-72 59 73 0
72 -59 73 0
72 59 -73 0
-73 -60 -74 0
-73 60 74 0
73 -60 74 0
73 60 -74 0
-74 -61 75 0
-74 61 75 0
74 -61 75 0
74 61 -75 0
-75 -62 -457 76 0
-75 -62 457 -76 0
-75 62 -458 76 0
-75 62 458 -76 0
75 -62 -459 76 0
75 -62 459 -76 0
75 62 -460 76 0
75 62 460 -76 0
-76 -63 -77 0
-76 63 77 0
76 -63 -77 0
76 63 -77 0
-77 -64 78 0
-77 64 78 0
77 -64 -78 0
77 64 78 0
-78 -65 -469 79 0
-78 -65 469 -79 0
-78 65 -470 79 0
-78 65 470 -79 0
78 -65 -471 79 0
78 -65 471 -79 0
78 65 -472 79 0
78 65 472 -79 0
-79 -66 -80 0
-79 66 80 0
79 -66 -80 0
79 66 80 0
-80 -67 -81 0
-80 67 -81 0
80 -67 81 0
80 67 81 0
-81 -68 -82 0
-81 68 -82 0
81 -68 -82 0
81 68 82 0
-82 -69 -83 0
-82 69 83 0
82 -69 83 0
82 69 -83 0
-83 -70 84 0
-83 70 -84 0
83 -70 -84 0
83 70 -84 0
-71 -85 0
71 85 0
-85 -72 -495 86 0
-85 -72 495 -86 0
-85 72 -496 86 0
-85 72 496 -86 0
85 -72 -497 86 0
85 -72 497 -86 0
85 72 -498 86 0
85 72 498 -86 0
-86 -73 -499 87 0
-86 -73 499 -87 0
-86 73 -500 87 0
-86 73 500 -87 0
86 -73 -501 87 0
86 -73 501 -87 0
86 73 -502 87 0
86 73 502 -87 0
-87 -74 -503 88 0
-87 -74 503 -88 0
-87 74 -504 88 0
-87 74 504 -88 0
87 -74 -505 88 0
87 -74 505 -88 0
87 74 -506 88 0
87 74 506 -88 0
-88 -75 -89 0
-88 75 89 0
88 -75 -89 0
88 75 89 0
-89 -76 90 0
-89 76 -90 0
89 -76 -90 0
89 76 90 0
-90 -77 -91 0
-90 77 91 0
90 -77 91 0
90 77 -91 0
-91 -78 -519 92 0
-91 -78 519 -92 0
-91 78 -520 92 0
-91 78 520 -92 0
91 -78 -521 92 0
91 -78 521 -92 0
91 78 -522 92 0
91 78 522 -92 0
-92 -79 -93 0
-92 79 93 0
92 -79 -93 0
92 79 93 0
-93 -80 -94 0
-93 80 94 0
93 -80 94 0
93 80 -94 0
-94 -81 -95 0
-94 81 -95 0
94 -81 -95 0
94 81 95 0
-95 -82 -96 0
-95 82 -96 0
95 -82 96 0
95 82 -96 0
-96 -83 97 0
-96 83 -97 0
96 -83 -97 0
96 83 -97 0
-97 -84 98 0
-97 84 -98 0
97 -84 98 0
97 84 98 0
-85 99 0
85 -99 0
-99 -86 100 0
-99 86 -100 0
99 -86 100 0
99 86 100 0
-100 -87 101 0
-100 87 -101 0
100 -87 101 0
100 87 101 0
-101 -88 -102 0
-101 88 -102 0
101 -88 -102 0
101 88 102 0
-102 -89 -103 0
-102 89 103 0
102 -89 -103 0
102 89 -103 0
-103 -90 -104 0
-103 90 -104 0
103 -90 104 0
103 90 104 0
-104 -91 -569 105 0
-104 -91 569 -105 0
-104 91 -570 105 0
-104 91 570 -105 0
104 -91 -571 105 0
104 -91 571 -105 0
104 91 -572 105 0
104 91 572 -105 0
-105 -92 106 0
-105 92 -106 0
105 -92 -106 0
105 92 106 0
-106 -93 107 0
-106 93 -107 0
106 -93 -107 0
106 93 -107 0
-107 -94 108 0
-107 94 -108 0
107 -94 -108 0
107 94 -108 0
-108 -95 -109 0
-108 95 109 0
108 -95 -109 0
108 95 -109 0
-109 -96 -110 0
-109 96 -110 0
109 -96 -110 0
109 96 110 0
-110 -97 -111 0
-110 97 111 0
110 -97 -111 0
110 97 -111 0
-111 -98 112 0
-111 98 -112 0
111 -98 -112 0
111 98 -112 0
-99 113 0
99 -113 0
-113 -100 -114 0
-113 100 114 0
113 -100 114 0
113 100 114 0
-114 -101 115 0
-114 101 115 0
114 -101 115 0
114 101 -115 0
-115 -102 116 0
-115 102 -116 0
115 -102 116 0
115 102 -116 0
-116 -103 117 0
-116 103 -117 0
116 -103 -117 0
116 103 117 0
-117 -104 -619 118 0
-117 -104 619 -118 0
-117 104 -620 118 0
-117 104 620 -118 0
117 -104 -621 118 0
117 -104 621 -118 0
117 104 -622 118 0
117 104 622 -118 0
-118 -105 119 0
-118 105 119 0
118 -105 -119 0
118 105 119 0
-119 -106 -120 0
-119 106 120 0
119 -106 -120 0
119 106 120 0
-120 -107 -631 121 0
-120 -107 631 -121 0
-120 107 -632 121 0
-120 107 632 -121 0
120 -107 -633 121 0
120 -107 633 -121 0
120 107 -634 121 0
120 107 634 -121 0
-121 -108 -122 0
-121 108 122 0
121 -108 122 0
121 108 122 0
-122 -109 -123 0
-122 109 -123 0
122 -109 -123 0
122 109 123 0
-123 -110 -124 0
-123 110 124 0
123 -110 -124 0
123 110 124 0
-124 -111 -125 0
-124 111 125 0
124 -111 -125 0
124 111 -125 0
-125 -112 -126 0
-125 112 126 0
125 -112 126 0
125 112 126 0
-113 -127 0
113 127 0
-127 -114 -128 0
-127 114 128 0
127 -114 -128 0
127 114 -128 0
-128 -115 -129 0
-128 115 -129 0
128 -115 129 0
128 115 -129 0
-129 -116 130 0
-129 116 -130 0
129 -116 -130 0
129 116 -130 0
-130 -117 -131 0
-130 117 -131 0
130 -117 131 0
130 117 131 0
-131 -118 132 0
-131 118 132 0
131 -118 132 0
131 118 -132 0
-132 -119 -133 0
-132 119 133 0
132 -119 133 0
132 119 133 0
-133 -120 134 0
-133 120 -134 0
133 -120 134 0
133 120 134 0
-134 -121 135 0
-134 121 135 0
134 -121 -135 0
134 121 135 0
-135 -122 -136 0
-135 122 136 0
135 -122 -136 0
135 122 136 0
-136 -123 -137 0
-136 123 137 0
136 -123 137 0
136 123 137 0
-137 -124 -697 138 0
-137 -124 697 -138 0
-137 124 -698 138 0
-137 124 698 -138 0
137 -124 -699 138 0
137 -124 699 -138 0
137 124 -700 138 0
137 124 700 -138 0
-138 -125 139 0
-138 125 -139 0
138 -125 -139 0
138 125 -139 0
-139 -126 140 0
-139 126 140 0
139 -126 140 0
139 126 -140 0
-127 141 0
127 -141 0
-141 -128 142 0
-141 128 -142 0
141 -128 -142 0
141 128 -142 0
-142 -129 -143 0
-142 129 143 0
142 -129 143 0
142 129 -143 0
-143 -130 -144 0
-143 130 144 0
143 -130 -144 0
143 130 -144 0
-144 -131 -723 145 0
-144 -131 723 -145 0
-144 131 -724 145 0
-144 131 724 -145 0
144 -131 -725 145 0
144 -131 725 -145 0
144 131 -726 145 0
144 131 726 -145 0
-145 -132 -727 146 0
-145 -132 727 -146 0
-145 132 -728 146 0
-145 132 728 -146 0
145 -132 -729 146 0
145 -132 729 -146 0
145 132 -730 146 0
145 132 730 -146 0
-146 -133 -731 147 0
-146 -133 731 -147 0
-146 133 -732 147 0
-146 133 732 -147 0
146 -133 -733 147 0
146 -133 733 -147 0
146 133 -734 147 0
146 133 734 -147 0
-147 -134 -735 148 0
-147 -134 735 -148 0
-147 134 -736 148 0
-147 134 736 -148 0
147 -134 -737 148 0
147 -134 737 -148 0
147 134 -738 148 0
147 134 738 -148 0
-148 -135 -149 0
-148 135 149 0
148 -135 -149 0
148 135 -149 0
-149 -136 -150 0
-149 136 -150 0
149 -136 -150 0
149 136 150 0
-150 -137 -747 151 0
-150 -137 747 -151 0
-150 137 -748 151 0
-150 137 748 -151 0
150 -137 -749 151 0
150 -137 749 -151 0
150 137 -750 151 0
150 137 750 -151 0
-151 -138 152 0
-151 138 152 0
151 -138 -152 0
151 138 152 0
-152 -139 -755 153 0
-152 -139 755 -153 0
-152 139 -756 153 0
-152 139 756 -153 0
152 -139 -757 153 0
152 -139 757 -153 0
152 139 -758 153 0
152 139 758 -153 0
-153 -140 -154 0
-153 140 154 0
153 -140 154 0
153 140 -154 0
-141 -155 0
141 155 0
-155 -142 -156 0
-155 142 -156 0
155 -142 156 0
155 142 -156 0
-156 -143 -769 157 0
-156 -143 769 -157 0
-156 143 -770 157 0
-156 143 770 -157 0
156 -143 -771 157 0
156 -143 771 -157 0
156 143 -772 157 0
156 143 772 -157 0
-157 -144 158 0
-157 144 158 0
157 -144 158 0
157 144 -158 0
-158 -145 -777 159 0
-158 -145 777 -159 0
-158 145 -778 159 0
-158 145 778 -159 0
158 -145 -779 159 0
158 -145 779 -159 0
158 145 -780 159 0
158 145 780 -159 0
-159 -146 -160 0
-159 146 160 0
159 -146 160 0
159 146 -160 0
-160 -147 -161 0
-160 147 161 0
160 -147 -161 0
160 147 161 0
-161 -148 -789 162 0
-161 -148 789 -162 0
-161 148 -790 162 0
-161 148 790 -162 0
161 -148 -791 162 0
161 -148 791 -162 0
161 148 -792 162 0
161 148 792 -162 0
-162 -149 -793 163 0
-162 -149 793 -163 0
-162 149 -794 163 0
-162 149 794 -163 0
162 -149 -795 163 0
162 -149 795 -163 0
162 149 -796 163 0
162 149 796 -163 0
-163 -150 -164 0
-163 150 -164 0
163 -150 164 0
163 150 -164 0
-164 -151 165 0
-164 151 -165 0
164 -151 -165 0
164 151 -165 0
-165 -152 -166 0
-165 152 -166 0
165 -152 166 0
165 152 -166 0
-166 -153 167 0
-166 153 -167 0
166 -153 -167 0
166 153 167 0
-167 -154 -168 0
-167 154 -168 0
167 -154 168 0
167 154 -168 0
-155 -817 169 0
-155 817 -169 0
155 -818 169 0
155 818 -169 0
-169 -156 170 0
-169 156 -170 0
169 -156 -170 0
169 156 -170 0
-170 -157 -171 0
-170 157 -171 0
170 -157 171 0
170 157 171 0
-171 -158 -172 0
-171 158 -172 0
171 -158 172 0
171 158 -172 0
-172 -159 173 0
-172 159 173 0
172 -159 -173 0
172 159 -173 0
-173 -160 -174 0
-173 160 -174 0
173 -160 174 0
173 160 -174 0
-174 -161 175 0
-174 161 175 0
174 -161 -175 0
174 161 175 0
-175 -162 -843 176 0
-175 -162 843 -176 0
-175 162 -844 176 0
-175 162 844 -176 0
175 -162 -845 176 0
175 -162 845 -176 0
175 162 -846 176 0
175 162 846 -176 0
-176 -163 -847 177 0
-176 -163 847 -177 0
-176 163 -848 177 0
-176 163 848 -177 0
176 -163 -849 177 0
176 -163 849 -177 0
176 163 -850 177 0
176 163 850 -177 0
-177 -164 -178 0
-177 164 178 0
177 -164 178 0
177 164 -178 0
-178 -165 -179 0
-178 165 179 0
178 -165 -179 0
178 165 179 0
-179 -166 180 0
-179 166 180 0
179 -166 180 0
179 166 -180 0
-180 -167 181 0
-180 167 -181 0
180 -167 -181 0
180 167 -181 0
-181 -168 182 0
-181 168 -182 0
181 -168 -182 0
181 168 182 0
-169 183 0
169 -183 0
-183 -170 -873 184 0
-183 -170 873 -184 0
-183 170 -874 184 0
-183 170 874 -184 0
183 -170 -875 184 0
183 -170 875 -184 0
183 170 -876 184 0
183 170 876 -184 0
-184 -171 -185 0
-184 171 -185 0
184 -171 185 0
184 171 -185 0
-185 -172 186 0
-185 172 -186 0
185 -172 -186 0
185 172 -186 0
-186 -173 187 0
-186 173 -187 0
186 -173 -187 0
186 173 -187 0
-187 -174 -889 188 0
-187 -174 889 -188 0
-187 174 -890 188 0
-187 174 890 -188 0
187 -174 -891 188 0
187 -174 891 -188 0
187 174 -892 188 0
187 174 892 -188 0
-188 -175 -189 0
-188 175 -189 0
188 -175 189 0
188 175 189 0
-189 -176 -190 0
-189 176 -190 0
189 -176 190 0
189 176 190 0
-190 -177 -191 0
-190 177 -191 0
190 -177 191 0
190 177 -191 0
-191 -178 192 0
-191 178 -192 0
191 -178 192 0
191 178 192 0
-192 -179 -909 193 0
-192 -179 909 -193 0
-192 179 -910 193 0
-192 179 910 -193 0
192 -179 -911 193 0
192 -179 911 -193 0
192 179 -912 193 0
192 179 912 -193 0
-193 -180 -913 194 0
-193 -180 913 -194 0
-193 180 -914 194 0
-193 180 914 -194 0
193 -180 -915 194 0
193 -180 915 -194 0
193 180 -916 194 0
193 180 916 -194 0
-194 -181 -195 0
-194 181 -195 0
194 -181 195 0
194 181 -195 0
-195 -182 -196 0
-195 182 196 0
195 -182 196 0
195 182 -196 0
196 0
