data/benchmarks/bayes/75-14-8-q.gr
p tw 924 1045
67 68
177 190
99 100
26 39
136 149
150 749
59 73
159 160
8 9
118 131
40 41
77 90
131 726
163 795
45 394
100 101
179 910
132 133
146 733
64 416
91 519
92 106
107 634
192 193
41 42
57 386
151 164
73 74
73 501
46 395
110 123
33 47
67 427
133 134
87 503
162 844
125 139
51 64
183 876
58 387
74 75
106 107
143 156
63 411
66 80
25 317
166 167
34 295
88 504
15 16
60 396
104 619
47 48
158 172
7 21
107 108
32 343
36 304
134 736
187 891
99 113
148 792
48 49
62 460
80 81
40 54
146 728
64 411
118 620
124 700
132 146
4 235
40 319
57 390
81 82
25 38
73 87
104 569
173 174
22 23
33 298
70 436
165 179
14 28
114 115
155 818
176 850
105 570
159 779
106 120
55 56
193 911
47 61
147 148
139 153
131 725
163 794
45 393
152 757
80 94
145 727
107 633
172 186
57 385
72 495
39 318
137 750
181 182
87 502
183 875
173 187
84 97
176 845
176 189
60 395
158 171
44 387
117 130
32 342
193 915
36 303
21 22
147 161
58 71
46 344
148 791
62 459
113 114
150 163
118 619
162 793
124 699
91 522
132 145
54 55
91 104
4 234
146 147
67 430
158 777
39 322
32 45
87 506
70 435
65 469
165 178
87 88
124 137
176 849
63 414
159 778
35 306
18 235
106 119
179 180
65 78
8 209
88 89
120 121
193 910
157 170
6 19
180 181
144 725
29 30
139 152
61 62
133 734
51 417
98 111
169 818
21 35
45 392
4 202
121 122
120 633
152 756
80 93
153 154
2 3
113 127
39 52
145 726
59 394
62 63
172 185
94 95
131 144
54 68
121 634
175 843
13 27
39 317
3 4
137 749
104 572
35 36
87 501
72 85
146 160
32 287
105 119
183 874
95 96
127 128
164 177
139 758
176 844
87 101
148 736
187 188
46 60
36 37
78 519
68 69
45 342
179 193
174 892
28 42
151 750
128 129
160 161
193 914
11 218
54 427
120 134
161 791
79 93
69 70
46 343
101 102
170 876
137 699
61 75
161 162
20 34
162 792
10 11
153 167
145 730
2 16
59 398
102 103
143 769
138 700
192 909
94 108
72 498
194 195
39 321
53 67
43 44
76 459
86 500
35 49
135 136
69 438
127 141
35 305
18 234
38 51
86 100
76 77
44 390
68 82
193 909
27 41
38 316
144 724
160 174
133 733
169 817
51 416
4 201
101 115
120 632
12 25
60 74
162 796
145 725
163 850
59 393
1 15
121 633
13 26
39 316
147 734
158 780
86 495
105 118
65 472
139 757
148 735
9 10
46 59
132 727
45 341
174 891
151 749
138 151
19 32
161 790
75 458
79 92
117 622
170 875
134 135
137 698
171 184
20 33
180 916
75 76
59 397
112 125
31 289
68 427
85 498
20 298
16 17
175 846
53 66
76 458
147 738
108 109
32 290
86 499
145 158
69 437
79 469
149 793
49 50
86 99
78 522
109 110
178 191
27 40
38 315
54 430
50 51
26 322
144 723
10 216
82 83
119 132
51 415
42 56
142 143
120 631
23 24
134 148
65 417
60 73
163 849
83 84
115 116
152 165
75 89
143 772
175 176
34 48
57 440
24 25
147 733
78 472
192 912
93 106
16 30
116 117
17 233
7 210
177 850
108 122
139 756
67 81
57 58
167 168
89 90
126 139
153 758
49 63
159 173
149 150
8 22
92 519
30 31
161 789
188 892
75 457
100 114
90 91
82 96
137 697
41 55
31 32
141 142
180 915
184 876
23 37
133 147
123 124
145 777
31 288
85 497
58 391
74 506
115 129
74 88
64 65
147 737
174 175
157 769
50 414
56 70
22 306
86 498
15 29
156 157
5 6
166 180
194 916
150 748
59 72
107 121
97 98
132 730
167 181
18 290
89 103
189 190
48 62
179 909
148 149
146 732
64 415
26 321
92 105
10 215
30 44
140 154
73 500
33 46
56 438
81 95
29 332
65 416
141 155
125 138
156 772
162 843
91 572
22 36
68 430
122 123
34 47
147 732
66 79
25 316
78 471
114 128
88 503
174 188
7 20
177 849
55 69
67 80
134 735
187 890
153 757
159 172
8 21
40 53
146 727
63 64
188 891
100 113
148 162
57 389
4 5
41 54
46 398
73 86
184 875
33 297
133 146
181 195
85 496
58 390
14 27
155 817
37 38
74 87
105 569
122 136
34 298
104 622
166 179
22 305
17 236
194 915
47 60
150 747
107 120
130 131
167 180
131 724
18 289
163 793
11 12
48 61
146 731
64 414
107 632
140 153
163 164
73 499
40 322
44 45
56 437
81 94
29 331
156 771
173 186
145 780
22 35
155 156
25 315
78 470
114 127
137 138
174 187
71 440
96 97
43 332
18 19
177 848
55 68
32 341
88 102
188 189
187 889
147 160
153 756
148 790
170 171
62 458
29 43
180 194
129 130
121 135
124 698
64 418
111 112
91 521
148 161
4 233
57 388
62 76
46 397
162 163
67 429
154 168
33 296
87 505
3 17
144 145
103 104
162 846
181 194
95 109
85 86
63 413
122 135
159 777
176 848
155 169
195 196
88 506
60 398
177 178
36 50
136 137
96 110
128 142
36 306
118 119
134 738
77 78
131 723
18 288
21 34
45 391
69 83
152 755
169 170
64 413
118 622
129 143
161 175
107 631
151 152
10 24
110 111
40 321
54 67
102 116
137 748
51 52
87 500
104 571
146 159
156 770
162 176
183 873
70 438
43 57
143 144
103 117
87 100
176 843
135 149
105 572
179 192
28 41
43 331
76 90
193 913
88 101
11 217
136 150
120 133
168 182
46 342
148 789
180 193
62 457
77 91
61 74
12 218
162 791
121 134
124 697
169 183
153 166
91 520
145 729
2 15
25 26
138 699
62 75
110 124
94 107
72 497
67 428
39 320
154 167
87 504
3 16
51 65
35 48
95 108
17 18
63 412
143 157
35 304
18 233
176 847
9 23
60 397
36 49
44 389
68 81
128 141
36 305
160 173
133 732
69 82
101 114
118 621
162 795
145 724
161 174
59 392
10 23
102 115
121 632
39 315
137 747
104 570
87 499
158 779
70 437
65 471
176 177
135 148
159 780
17 31
117 118
174 890
151 748
76 89
109 123
193 912
11 216
58 59
168 181
117 621
46 341
191 192
50 64
170 874
150 151
152 758
12 217
142 156
162 790
91 92
145 728
59 396
83 97
138 698
20 297
183 184
32 33
72 496
175 845
39 319
76 457
175 189
165 166
24 38
124 125
32 289
84 98
69 436
116 130
176 846
65 66
35 303
148 738
176 190
9 22
78 521
57 71
45 344
157 158
44 388
6 7
117 131
149 163
193 916
139 140
54 429
133 731
58 72
42 55
90 104
190 191
39 40
150 164
134 147
162 794
145 723
172 173
163 848
31 45
59 391
131 132
182 196
91 105
75 88
123 137
143 771
121 631
57 439
192 911
72 73
158 778
32 46
16 29
64 78
65 470
164 165
7 209
86 502
124 138
108 121
139 755
156 170
79 472
5 19
149 796
18 236
17 30
65 79
49 62
174 889
8 210
97 111
151 747
109 122
157 171
11 215
38 318
6 20
144 726
117 620
50 63
170 873
51 418
82 95
98 112
180 914
120 634
142 155
162 789
39 53
23 36
59 395
31 287
83 96
138 697
20 296
74 505
115 128
131 145
175 844
147 736
175 188
24 37
72 86
50 413
32 288
56 69
86 497
69 435
116 129
38 39
164 178
148 737
78 520
132 729
45 343
89 102
92 522
149 162
71 72
54 428
161 792
26 320
75 460
30 43
63 77
90 103
12 13
137 700
65 415
4 18
163 847
3 202
104 105
31 44
182 195
91 571
68 429
13 14
58 394
123 136
45 46
143 770
147 731
192 910
105 106
37 51
76 460
157 772
64 77
86 501
46 47
156 169
78 79
79 471
5 18
149 795
38 52
138 139
70 84
97 110
19 20
130 144
179 912
43 386
11 25
38 317
79 80
188 890
117 619
71 85
171 172
20 21
52 53
163 177
180 913
12 26
184 874
44 58
85 495
104 118
58 389
20 295
74 504
53 54
147 735
45 59
34 297
145 146
50 412
86 496
22 304
17 235
26 27
104 621
137 151
194 914
86 87
18 32
78 92
132 728
178 179
27 28
138 152
170 184
92 521
146 730
19 33
119 120
26 319
75 459
63 76
111 125
60 61
171 185
56 436
4 17
3 201
52 66
152 153
1 2
112 126
91 570
31 290
68 428
58 393
144 158
145 779
93 94
78 469
37 50
85 99
157 771
185 186
71 439
145 159
177 847
177 191
26 40
79 470
150 750
149 794
70 83
153 755
118 132
186 187
130 143
163 796
178 192
179 911
43 385
11 24
146 734
64 417
188 889
119 133
57 387
151 165
73 502
46 396
163 176
184 873
65 418
44 57
33 295
162 845
104 117
58 388
152 166
74 503
25 318
45 58
34 296
88 505
93 107
50 411
104 620
22 303
17 234
193 194
137 150
194 913
59 60
96 109
32 344
18 31
134 737
187 892
78 91
126 140
18 287
170 183
92 520
92 93
64 412
129 142
146 729
184 185
111 124
33 34
4 236
40 320
56 435
25 39
125 126
52 65
162 175
156 769
91 569
34 35
144 157
58 392
66 67
145 778
103 116
105 571
158 159
157 770
7 8
